Reading model...
...model read.
creating competitive generators file...
...competitive generators recorded.
Loading data...
.. real-time data read.
Compiling instance...
...instance created.
Creating Offer Mitigation (model will solve as dispatch if TRUE)...
NOTE: storage offers will not be mitigated
...storage offer mitigation file created
Converting model to MPEC...
...converted
NOTE: initial MIP solve with only storage competitive to get feasible solution
Solving...

Welcome to IBM(R) ILOG(R) CPLEX(R) Interactive Optimizer 12.9.0.0
  with Simplex, Mixed Integer & Barrier Optimizers
5725-A06 5725-A29 5724-Y48 5724-Y49 5724-Y54 5724-Y55 5655-Y21
Copyright IBM Corp. 1988, 2019.  All Rights Reserved.

Type 'help' for a list of available commands.
Type 'help' followed by a command name for more
information on commands.

CPLEX> Logfile 'cplex.log' closed.
Logfile 'C:\Users\llavin\Desktop\test826\logs\tmpl_er20r2.cplex.log' open.
CPLEX> New value for parallel optimization mode: -1
CPLEX> New value for emphasis for MIP optimization: 1
CPLEX> New value for mixed integer optimality gap tolerance: 0.01
CPLEX> New value for integrality tolerance: 1e-12
CPLEX> New value for deterministic time limit in ticks: 65000
CPLEX> Problem 'C:\Users\llavin\Desktop\test826\logs\tmpd6jlhp2m.pyomo.lp' read.
Read time = 0.49 sec. (28.94 ticks)
CPLEX> Problem name         : C:\Users\llavin\Desktop\test826\logs\tmpd6jlhp2m.pyomo.lp
Objective sense      : Maximize
Variables            :  107803  [Nneg: 1,  Box: 44062,  Free: 8928,
                                 Binary: 54812]
Objective nonzeros   :   18912
Linear constraints   :  246963  [Less: 82886,  Greater: 118460,  Equal: 45617]
  Nonzeros           :  622373
  RHS nonzeros       :  136554

Variables            : Min LB: -5000.000        Max UB: 1000000.       
Objective nonzeros   : Min   : 0.1250000        Max   : 180.0000       
Linear constraints   :
  Nonzeros           : Min   : 0.001000000      Max   : 1000000.       
  RHS nonzeros       : Min   : 0.001000000      Max   : 1000000.       
CPLEX> CPXPARAM_Parallel                                -1
CPXPARAM_Emphasis_MIP                            1
CPXPARAM_DetTimeLimit                            65000
CPXPARAM_MIP_Tolerances_MIPGap                   0.01
CPXPARAM_MIP_Tolerances_Integrality              9.9999999999999998e-13
Tried aggregator 3 times.
MIP Presolve eliminated 172927 rows and 33975 columns.
MIP Presolve added 7773 rows and 0 columns.
MIP Presolve modified 52860 coefficients.
Aggregator did 26196 substitutions.
Reduced MIP has 55613 rows, 47248 columns, and 165971 nonzeros.
Reduced MIP has 18742 binaries, 0 generals, 0 SOSs, and 0 indicators.
Presolve time = 0.59 sec. (386.76 ticks)
Probing fixed 809 vars, tightened 10729 bounds.
Probing time = 0.45 sec. (17.45 ticks)
Tried aggregator 2 times.
MIP Presolve eliminated 1860 rows and 1635 columns.
MIP Presolve modified 7021 coefficients.
Aggregator did 51 substitutions.
Reduced MIP has 53702 rows, 45562 columns, and 160267 nonzeros.
Reduced MIP has 17930 binaries, 0 generals, 0 SOSs, and 0 indicators.
Presolve time = 0.27 sec. (276.83 ticks)
Probing fixed 6 vars, tightened 571 bounds.
Probing time = 0.63 sec. (21.89 ticks)
Clique table members: 96940.
MIP emphasis: integer feasibility.
MIP search method: dynamic search.
Parallel mode: opportunistic, using up to 32 threads.
Root relaxation solution time = 1.03 sec. (2140.39 ticks)

        Nodes                                         Cuts/
   Node  Left     Objective  IInf  Best Integer    Best Bound    ItCnt     Gap

      0     0        0.0000     4                      0.0000     9580         
*     0+    0                            0.0000        0.0000             0.00%
      0     0        cutoff              0.0000        0.0000     9580    0.00%
Elapsed time = 4.47 sec. (4100.89 ticks, tree = 0.01 MB, solutions = 1)

Root node processing (before b&c):
  Real time             =    4.50 sec. (4104.93 ticks)
Parallel b&c, 32 threads:
  Real time             =    0.00 sec. (0.00 ticks)
  Sync time (average)   =    0.00 sec.
  Wait time (average)   =    0.00 sec.
                          ------------
Total (root+branch&cut) =    4.50 sec. (4104.93 ticks)

Solution pool: 1 solution saved.

MIP - Integer optimal solution:  Objective =  0.0000000000e+00
Solution time =    4.53 sec.  Iterations = 9580  Nodes = 0
Deterministic time = 4105.23 ticks  (906.03 ticks/sec)

CPLEX> Incumbent solution written to file 'C:\Users\llavin\Desktop\test826\logs\tmpddsdcxei.cplex.sol'.
CPLEX> NOTE: no warmstart specified for MIP iteration, default behavior is true
NOTE: resolving with all competitive generators using storage-only solution to warmstart
Solving...

Welcome to IBM(R) ILOG(R) CPLEX(R) Interactive Optimizer 12.9.0.0
  with Simplex, Mixed Integer & Barrier Optimizers
5725-A06 5725-A29 5724-Y48 5724-Y49 5724-Y54 5724-Y55 5655-Y21
Copyright IBM Corp. 1988, 2019.  All Rights Reserved.

Type 'help' for a list of available commands.
Type 'help' followed by a command name for more
information on commands.

CPLEX> Logfile 'cplex.log' closed.
Logfile 'C:\Users\llavin\Desktop\test826\logs\tmp8hk71gyq.cplex.log' open.
CPLEX> New value for parallel optimization mode: -1
CPLEX> New value for emphasis for MIP optimization: 1
CPLEX> New value for mixed integer optimality gap tolerance: 0.01
CPLEX> New value for integrality tolerance: 1e-12
CPLEX> New value for deterministic time limit in ticks: 65000
CPLEX> Problem 'C:\Users\llavin\Desktop\test826\logs\tmporu5z8m9.pyomo.lp' read.
Read time = 0.45 sec. (28.99 ticks)
CPLEX> MIP start file 'C:\Users\llavin\Desktop\test826\logs\tmpm5nf1j1r.cplex.mst' read.
CPLEX> Problem name         : C:\Users\llavin\Desktop\test826\logs\tmporu5z8m9.pyomo.lp
Objective sense      : Maximize
Variables            :  109243  [Nneg: 1,  Box: 45502,  Free: 8928,
                                 Binary: 54812]
Objective nonzeros   :   20304
Linear constraints   :  246963  [Less: 82886,  Greater: 118460,  Equal: 45617]
  Nonzeros           :  622373
  RHS nonzeros       :  136554

Variables            : Min LB: -5000.000        Max UB: 1000000.       
Objective nonzeros   : Min   : 0.1250000        Max   : 180.0000       
Linear constraints   :
  Nonzeros           : Min   : 0.001000000      Max   : 1000000.       
  RHS nonzeros       : Min   : 0.001000000      Max   : 1000000.       
CPLEX> CPXPARAM_Parallel                                -1
CPXPARAM_Emphasis_MIP                            1
CPXPARAM_DetTimeLimit                            65000
CPXPARAM_MIP_Tolerances_MIPGap                   0.01
CPXPARAM_MIP_Tolerances_Integrality              9.9999999999999998e-13
Warning:  No solution found from 1 MIP starts.
Retaining values of one MIP start for possible repair.
Tried aggregator 3 times.
MIP Presolve eliminated 172927 rows and 35415 columns.
MIP Presolve added 7773 rows and 0 columns.
MIP Presolve modified 52860 coefficients.
Aggregator did 26196 substitutions.
Reduced MIP has 55613 rows, 47248 columns, and 165971 nonzeros.
Reduced MIP has 18742 binaries, 0 generals, 0 SOSs, and 0 indicators.
Presolve time = 0.56 sec. (387.55 ticks)
Probing fixed 809 vars, tightened 10729 bounds.
Probing time = 0.42 sec. (17.45 ticks)
Tried aggregator 2 times.
MIP Presolve eliminated 1860 rows and 1635 columns.
MIP Presolve modified 7021 coefficients.
Aggregator did 51 substitutions.
Reduced MIP has 53702 rows, 45562 columns, and 160267 nonzeros.
Reduced MIP has 17930 binaries, 0 generals, 0 SOSs, and 0 indicators.
Presolve time = 0.25 sec. (276.84 ticks)
Probing fixed 6 vars, tightened 571 bounds.
Probing time = 0.61 sec. (21.89 ticks)
Clique table members: 96940.
MIP emphasis: integer feasibility.
MIP search method: dynamic search.
Parallel mode: opportunistic, using up to 32 threads.
Root relaxation solution time = 1.13 sec. (2195.81 ticks)

        Nodes                                         Cuts/
   Node  Left     Objective  IInf  Best Integer    Best Bound    ItCnt     Gap

      0     0        0.0000     5                      0.0000    10618         
*     0+    0                            0.0000        0.0000             0.00%
      0     0        cutoff              0.0000        0.0000    10618    0.00%
Elapsed time = 4.67 sec. (4236.34 ticks, tree = 0.01 MB, solutions = 1)

Root node processing (before b&c):
  Real time             =    4.69 sec. (4240.41 ticks)
Parallel b&c, 32 threads:
  Real time             =    0.00 sec. (0.00 ticks)
  Sync time (average)   =    0.00 sec.
  Wait time (average)   =    0.00 sec.
                          ------------
Total (root+branch&cut) =    4.69 sec. (4240.41 ticks)

Solution pool: 1 solution saved.

MIP - Integer optimal solution:  Objective =  0.0000000000e+00
Solution time =    4.72 sec.  Iterations = 10618  Nodes = 0
Deterministic time = 4240.72 ticks  (898.65 ticks/sec)

CPLEX> Incumbent solution written to file 'C:\Users\llavin\Desktop\test826\logs\tmpvw3bt7dd.cplex.sol'.
CPLEX> Exporting results... 
